0 78 
1 79 
2 81 
3 73 
4 77 
5 80 
6 82 
7 82 
8 80 
9 81 
10 80 
11 78 
12 74 
13 73 
14 71 
15 65 
16 64 
17 67 
18 67 
19 67 
20 64 
21 61 
22 59 
23 60 
24 59 
25 57 
26 54 
27 50 
28 47 
29 43 
30 42 
31 40 
32 37 
33 35 
34 32 
35 36 
36 25 
37 26 
38 24 
39 23 
40 21 
41 21 
42 18 
43 17 
44 15 
45 12 
46 10 
47 8 
48 7 
49 5 
50 3 
51 6 
52 6 
53 5 
54 3 
55 0 
56 0 
57 0 
58 0 
59 0 
60 0 
61 0 
62 0 
63 0 
64 0 
65 0 
66 0 
67 4 
68 0 
69 4 
70 3 
71 2 
72 1 
73 1 
74 0 
75 0 

